data/mip_solutions/furman_sahinidis/transshipment/7sp-torw1_gurobi.sol
Elapsed time: 0.0938730239868
Nodes explored: 0
Upper bound: 10.0
Lower bound: 10.0
y[0,0]=1
y[1,1]=1
y[1,2]=1
y[2,0]=1
y[2,1]=1
y[2,2]=1
y[2,3]=1
y[3,1]=1
y[3,2]=1
y[4,2]=1
q[0,0,4]=70.32
q[0,0,5]=98.4
q[0,0,6]=182.88
q[1,1,5]=101.28
q[1,2,2]=116.24
q[1,2,3]=634.92
q[1,2,4]=84.4
q[2,0,3]=91.44
q[2,0,4]=21.12
q[2,0,5]=121.056
q[2,1,3]=488.832
q[2,1,4]=72.96
q[2,1,5]=51.424
q[2,2,3]=211.4
q[2,2,4]=24.08
q[2,3,6]=347.424
q[3,1,5]=22.4
q[3,2,1]=123.2
q[3,2,2]=123.2
q[3,2,3]=359.68
q[3,2,4]=71.52
q[4,2,1]=74.8
q[4,2,2]=156.56
r[0,6]=70.368
r[1,3]=69.44
r[2,6]=111.104
r[3,1]=61.6
r[3,4]=15.52
r[4,2]=156.56
